
#######################Iteration 0#######################

#######################Solve Z 0#######################
Solver command line: ['/home/paperspace/CoinIpopt/build/bin/ipopt', '/tmp/tmpmzfaexjb.pyomo.nl', '-AMPL']

Ipopt 3.12: 

******************************************************************************
This program contains Ipopt, a library for large-scale nonlinear optimization.
 Ipopt is released as open source code under the Eclipse Public License (EPL).
         For more information visit http://projects.coin-or.org/Ipopt
******************************************************************************

This is Ipopt version 3.12, running with linear solver ma27.

Number of nonzeros in equality constraint Jacobian...:     8980
Number of nonzeros in inequality constraint Jacobian.:        0
Number of nonzeros in Lagrangian Hessian.............:     3300

Total number of variables............................:     3898
                     variables with only lower bounds:      900
                variables with lower and upper bounds:        2
                     variables with only upper bounds:        0
Total number of equality constraints.................:     2996
Total number of inequality constraints...............:        0
        inequality constraints with only lower bounds:        0
   inequality constraints with lower and upper bounds:        0
        inequality constraints with only upper bounds:        0

iter    objective    inf_pr   inf_du lg(mu)  ||d||  lg(rg) alpha_du alpha_pr  ls
   0  2.1150644e-02 1.17e-14 1.00e+00  -1.0 0.00e+00    -  0.00e+00 0.00e+00   0
   1  4.9583821e+00 1.57e-03 1.97e-01  -1.0 9.81e-02    -  9.92e-01 1.00e+00f  1
   2  1.0332289e+00 2.89e-01 5.16e-01  -2.5 1.26e+00    -  7.28e-01 1.00e+00f  1
   3  3.4613636e-01 2.48e-02 6.81e-01  -2.5 2.27e-01    -  7.42e-01 1.00e+00h  1
   4  2.3638520e-01 5.92e-02 3.42e-01  -2.5 3.94e-01    -  1.00e+00 1.00e+00h  1
   5  1.3880752e-01 2.31e-01 1.09e+00  -2.5 7.10e+01  -2.0 3.34e-03 7.36e-03f  1
   6  9.1180663e-02 4.60e-02 2.42e-01  -2.5 3.02e-01    -  1.00e+00 1.00e+00h  1
   7  7.9939531e-02 7.37e-03 1.17e-01  -2.5 1.36e-01    -  1.00e+00 1.00e+00h  1
   8  8.3273511e-02 4.84e-03 1.11e-01  -2.5 9.29e-02    -  1.00e+00 1.00e+00h  1
   9  8.4384625e-02 1.59e-04 1.67e-03  -2.5 1.32e-02    -  1.00e+00 1.00e+00h  1
iter    objective    inf_pr   inf_du lg(mu)  ||d||  lg(rg) alpha_du alpha_pr  ls
  10  1.1352182e-02 9.41e-05 1.00e-02  -3.8 1.78e-02    -  1.00e+00 1.00e+00h  1
  11  2.8734374e-03 6.04e-04 4.20e-03  -3.8 3.52e-02    -  1.00e+00 1.00e+00h  1
  12  1.6728866e-03 1.47e-04 1.81e-04  -3.8 1.61e-02    -  1.00e+00 1.00e+00h  1
  13  2.5667191e-04 2.70e-05 4.54e-04  -5.7 7.29e-03    -  9.91e-01 1.00e+00h  1
  14  4.6858599e-05 1.28e-03 1.70e-04  -5.7 4.60e-02    -  9.63e-01 1.00e+00h  1
  15  1.3882256e-05 5.03e-04 1.44e-05  -5.7 2.74e-02    -  1.00e+00 1.00e+00h  1
  16  6.9059903e-06 3.41e-05 1.06e-06  -5.7 8.41e-03    -  1.00e+00 1.00e+00h  1
  17  5.9889276e-06 8.69e-08 7.43e-09  -5.7 4.53e-04    -  1.00e+00 1.00e+00h  1
  18  1.0348515e-06 2.39e-06 5.04e-06  -8.6 2.08e-03    -  9.95e-01 1.00e+00h  1
  19  1.9313883e-07 8.19e-04 4.71e-05  -8.6 3.57e-02    -  9.04e-01 1.00e+00h  1
iter    objective    inf_pr   inf_du lg(mu)  ||d||  lg(rg) alpha_du alpha_pr  ls
  20  4.5803617e-08 3.32e-06 2.12e-08  -8.6 2.96e-03    -  1.00e+00 1.00e+00h  1
  21  1.1772447e-08 4.54e-04 1.57e-07  -8.6 2.56e-02    -  1.00e+00 1.00e+00h  1
  22  4.3211585e-09 3.13e-06 2.71e-09  -8.6 3.25e-03    -  1.00e+00 1.00e+00h  1
  23  2.9312672e-09 1.10e-07 1.13e-10  -8.6 4.41e-04    -  1.00e+00 1.00e+00h  1
  24  2.8100200e-09 1.78e-10 2.08e-13  -8.6 1.78e-05    -  1.00e+00 1.00e+00h  1

Number of Iterations....: 24

                                   (scaled)                 (unscaled)
Objective...............:   2.8100200006691984e-09    2.8100200006691984e-09
Dual infeasibility......:   2.0791504504397498e-13    2.0791504504397498e-13
Constraint violation....:   1.7791942918954362e-10    1.7791942918954362e-10
Complementarity.........:   2.5071695358233481e-09    2.5071695358233481e-09
Overall NLP error.......:   2.5071695358233481e-09    2.5071695358233481e-09


Number of objective function evaluations             = 25
Number of objective gradient evaluations             = 25
Number of equality constraint evaluations            = 25
Number of inequality constraint evaluations          = 0
Number of equality constraint Jacobian evaluations   = 25
Number of inequality constraint Jacobian evaluations = 0
Number of Lagrangian Hessian evaluations             = 24
Total CPU secs in IPOPT (w/o function evaluations)   =      0.084
Total CPU secs in NLP function evaluations           =      0.012

EXIT: Optimal Solution Found.


#######################Solve S 0#######################
   Iteration     Total nfev        Cost      Cost reduction    Step norm     Optimality   
       0              1         2.8731e-01                                    1.32e+00    
       1              2         4.4026e-02      2.43e-01       1.07e-01       1.25e-02    
       2              3         4.2617e-02      1.41e-03       2.48e-02       3.06e-04    
       3              4         4.2607e-02      1.01e-05       3.10e-03       7.72e-06    
       4              5         4.2607e-02      6.63e-09       8.12e-05       6.92e-06    
       5              6         4.2607e-02      3.43e-11       5.50e-06       2.39e-06    
`ftol` termination condition is satisfied.
Function evaluations 6, initial cost 2.8731e-01, final cost 4.2607e-02, first-order optimality 2.39e-06.

#######################Solve C 0#######################
   Iteration     Total nfev        Cost      Cost reduction    Step norm     Optimality   
       0              1         4.2607e-02                                    5.49e-03    
       1              2         3.8015e-02      4.59e-03       4.57e-01       1.22e-02    
       2              3         3.7157e-02      8.58e-04       1.04e-01       1.11e-02    
       3              4         3.6744e-02      4.13e-04       5.73e-02       1.05e-02    
       4              5         3.5576e-02      1.17e-03       1.85e-01       1.24e-02    
       5              6         3.5128e-02      4.48e-04       7.33e-02       1.13e-02    
       6              7         3.4913e-02      2.15e-04       1.47e-02       3.68e-03    
       7              8         3.2461e-02      2.45e-03       7.37e-01       3.78e-04    
       8              9         3.2263e-02      1.98e-04       2.01e-01       7.92e-06    
       9             10         3.2233e-02      3.04e-05       6.31e-02       1.77e-06    
      10             11         3.2229e-02      3.49e-06       1.92e-02       1.86e-06    
      11             12         3.2229e-02      3.53e-07       3.84e-03       1.80e-06    
      12             13         3.2228e-02      3.60e-07       5.05e-03       1.33e-06    
      13             14         3.2228e-02      9.69e-08       1.70e-03       1.21e-06    
      14             15         3.2228e-02      4.00e-08       9.95e-04       1.06e-06    
      15             16         3.2228e-02      1.37e-08       3.97e-04       9.83e-07    
      16             17         3.2228e-02      2.03e-08       6.20e-04       8.61e-07    
      17             18         3.2228e-02      1.27e-08       4.23e-04       7.73e-07    
      18             19         3.2228e-02      2.92e-09       1.02e-04       7.51e-07    
`ftol` termination condition is satisfied.
Function evaluations 19, initial cost 4.2607e-02, final cost 3.2228e-02, first-order optimality 7.51e-07.

#######################Iteration 1#######################

#######################Solve Z 1#######################
Solver command line: ['/home/paperspace/CoinIpopt/build/bin/ipopt', '/tmp/tmpyonoo568.pyomo.nl', '-AMPL']

Ipopt 3.12: 

******************************************************************************
This program contains Ipopt, a library for large-scale nonlinear optimization.
 Ipopt is released as open source code under the Eclipse Public License (EPL).
         For more information visit http://projects.coin-or.org/Ipopt
******************************************************************************

This is Ipopt version 3.12, running with linear solver ma27.

Number of nonzeros in equality constraint Jacobian...:     8980
Number of nonzeros in inequality constraint Jacobian.:        0
Number of nonzeros in Lagrangian Hessian.............:     3300

Total number of variables............................:     3898
                     variables with only lower bounds:      900
                variables with lower and upper bounds:        2
                     variables with only upper bounds:        0
Total number of equality constraints.................:     2996
Total number of inequality constraints...............:        0
        inequality constraints with only lower bounds:        0
   inequality constraints with lower and upper bounds:        0
        inequality constraints with only upper bounds:        0

iter    objective    inf_pr   inf_du lg(mu)  ||d||  lg(rg) alpha_du alpha_pr  ls
   0  2.6890206e+00 1.78e-10 1.95e+00  -1.0 0.00e+00    -  0.00e+00 0.00e+00   0
   1  4.6365094e+00 3.27e-05 3.76e-01  -1.0 2.92e-01    -  7.25e-01 1.00e+00f  1
   2  1.4158191e+01 1.43e-03 1.56e-01  -1.0 2.43e-01    -  1.00e+00 1.00e+00f  1
   3  1.6924075e+00 6.99e-05 1.66e-01  -2.5 1.19e-01    -  1.00e+00 1.00e+00f  1
   4  2.8323286e-01 2.11e-04 4.67e-02  -2.5 5.51e-02    -  1.00e+00 1.00e+00f  1
   5  1.0729337e-01 7.23e-06 7.07e-03  -2.5 2.28e-02    -  1.00e+00 1.00e+00h  1
   6  1.5071231e-02 1.33e-04 1.29e-02  -3.8 2.11e-02    -  1.00e+00 1.00e+00f  1
   7  3.4802074e-03 4.91e-04 4.63e-03  -3.8 3.18e-02    -  1.00e+00 1.00e+00h  1
   8  1.7807107e-03 4.25e-04 4.68e-04  -3.8 2.71e-02    -  1.00e+00 1.00e+00h  1
   9  2.7519864e-04 2.98e-05 4.68e-04  -5.7 7.43e-03    -  9.89e-01 1.00e+00h  1
iter    objective    inf_pr   inf_du lg(mu)  ||d||  lg(rg) alpha_du alpha_pr  ls
  10  5.0387239e-05 1.12e-03 1.56e-04  -5.7 4.31e-02    -  9.68e-01 1.00e+00h  1
  11  1.4511787e-05 4.12e-04 1.37e-05  -5.7 2.51e-02    -  1.00e+00 1.00e+00h  1
  12  7.0158270e-06 3.67e-05 1.21e-06  -5.7 8.61e-03    -  1.00e+00 1.00e+00h  1
  13  5.9952990e-06 1.21e-07 9.87e-09  -5.7 5.26e-04    -  1.00e+00 1.00e+00h  1
  14  1.0361931e-06 2.39e-06 5.04e-06  -8.6 2.08e-03    -  9.95e-01 1.00e+00h  1
  15  1.9339531e-07 8.20e-04 4.72e-05  -8.6 3.57e-02    -  9.04e-01 1.00e+00h  1
  16  4.5864103e-08 3.28e-06 2.10e-08  -8.6 2.95e-03    -  1.00e+00 1.00e+00h  1
  17  1.1785923e-08 4.55e-04 1.57e-07  -8.6 2.56e-02    -  1.00e+00 1.00e+00h  1
  18  4.3239193e-09 3.14e-06 2.72e-09  -8.6 3.26e-03    -  1.00e+00 1.00e+00h  1
  19  2.9316295e-09 1.10e-07 1.14e-10  -8.6 4.42e-04    -  1.00e+00 1.00e+00h  1
iter    objective    inf_pr   inf_du lg(mu)  ||d||  lg(rg) alpha_du alpha_pr  ls
  20  2.8100273e-09 1.79e-10 2.10e-13  -8.6 1.78e-05    -  1.00e+00 1.00e+00h  1

Number of Iterations....: 20

                                   (scaled)                 (unscaled)
Objective...............:   2.8100273109261415e-09    2.8100273109261415e-09
Dual infeasibility......:   2.0956206249342834e-13    2.0956206249342834e-13
Constraint violation....:   1.7933052959273610e-10    1.7933052959273610e-10
Complementarity.........:   2.5071773019158764e-09    2.5071773019158764e-09
Overall NLP error.......:   2.5071773019158764e-09    2.5071773019158764e-09


Number of objective function evaluations             = 21
Number of objective gradient evaluations             = 21
Number of equality constraint evaluations            = 21
Number of inequality constraint evaluations          = 0
Number of equality constraint Jacobian evaluations   = 21
Number of inequality constraint Jacobian evaluations = 0
Number of Lagrangian Hessian evaluations             = 20
Total CPU secs in IPOPT (w/o function evaluations)   =      0.056
Total CPU secs in NLP function evaluations           =      0.024

EXIT: Optimal Solution Found.


#######################Solve S 1#######################
   Iteration     Total nfev        Cost      Cost reduction    Step norm     Optimality   
       0              1         4.2607e-02                                    2.39e-06    
       1              2         4.2607e-02      3.47e-12       7.81e-07       3.72e-06    
`ftol` termination condition is satisfied.
Function evaluations 2, initial cost 4.2607e-02, final cost 4.2607e-02, first-order optimality 3.72e-06.

#######################Solve C 1#######################
   Iteration     Total nfev        Cost      Cost reduction    Step norm     Optimality   
       0              1         4.2607e-02                                    5.49e-03    
       1              2         3.8015e-02      4.59e-03       4.57e-01       1.22e-02    
       2              3         3.7158e-02      8.58e-04       1.04e-01       1.11e-02    
       3              4         3.6745e-02      4.13e-04       5.73e-02       1.05e-02    
       4              5         3.5576e-02      1.17e-03       1.85e-01       1.24e-02    
       5              6         3.5128e-02      4.48e-04       7.33e-02       1.13e-02    
       6              7         3.4913e-02      2.15e-04       1.47e-02       3.68e-03    
       7              8         3.2461e-02      2.45e-03       7.37e-01       3.78e-04    
       8              9         3.2263e-02      1.98e-04       2.01e-01       7.90e-06    
       9             10         3.2233e-02      3.03e-05       6.24e-02       2.96e-06    
      10             11         3.2229e-02      3.54e-06       1.94e-02       1.75e-06    
      11             12         3.2229e-02      4.78e-07       5.16e-03       1.95e-06    
      12             13         3.2229e-02      1.94e-07       2.69e-03       1.66e-06    
      13             14         3.2228e-02      1.32e-07       2.15e-03       1.39e-06    
      14             15         3.2228e-02      7.31e-08       1.56e-03       1.13e-06    
      15             16         3.2228e-02      3.99e-08       1.07e-03       9.59e-07    
      16             17         3.2228e-02      1.94e-08       5.89e-04       8.74e-07    
      17             18         3.2228e-02      1.64e-08       5.30e-04       8.11e-07    
      18             19         3.2228e-02      1.11e-08       3.89e-04       7.39e-07    
      19             20         3.2228e-02      8.47e-09       3.14e-04       6.73e-07    
      20             21         3.2228e-02      4.91e-09       1.90e-04       6.37e-07    
      21             22         3.2228e-02      3.77e-09       1.50e-04       6.08e-07    
`ftol` termination condition is satisfied.
Function evaluations 22, initial cost 4.2607e-02, final cost 3.2228e-02, first-order optimality 6.08e-07.
